benchmark/results/graph__15-1000-0.10-02_11/graph__15-1000-0.10-02_11_QuintonOs_Benders_primal_sub.lp
\ This file has been generated by DOcplex
\ ENCODING=ISO-8859-1
\Problem name: Quinton Bounded Benders_primal_sub

Maximize
 obj: tau
Subject To
 c1: tau <= 0.000954198473
 c2: y_a0_proc_0 + y_a0_proc_1 - tau = 0
 c3: y_a0_proc_0 <= 0
 c4: y_a0_proc_1 <= 1
 c5: tau <= 0.001893939394
 c6: y_a1_proc_0 + y_a1_proc_1 - tau = 0
 c7: y_a1_proc_0 <= 1
 c8: y_a1_proc_1 <= 0
 c9: tau <= 0.001297016861
 c10: y_a2_proc_0 - tau = 0
 c11: y_a2_proc_0 <= 1
 c12: tau <= 0.000854700855
 c13: y_a3_proc_0 + y_a3_proc_1 - tau = 0
 c14: y_a3_proc_0 <= 0
 c15: y_a3_proc_1 <= 1
 c16: tau <= 0.001251564456
 c17: y_a4_proc_0 + y_a4_proc_1 - tau = 0
 c18: y_a4_proc_0 <= 0
 c19: y_a4_proc_1 <= 1
 c20: tau <= 0.000829187396
 c21: y_a5_proc_1 - tau = 0
 c22: y_a5_proc_1 <= 1
 c23: tau <= 0.002169197397
 c24: y_a6_proc_1 - tau = 0
 c25: y_a6_proc_1 <= 1
 c26: tau <= 0.001113585746
 c27: y_a7_proc_0 + y_a7_proc_1 - tau = 0
 c28: y_a7_proc_0 <= 1
 c29: y_a7_proc_1 <= 0
 c30: tau <= 0.001219512195
 c31: y_a8_proc_0 + y_a8_proc_1 - tau = 0
 c32: y_a8_proc_0 <= 0
 c33: y_a8_proc_1 <= 1
 c34: tau <= 0.001543209877
 c35: y_a9_proc_0 + y_a9_proc_1 - tau = 0
 c36: y_a9_proc_0 <= 0
 c37: y_a9_proc_1 <= 1
 c38: tau <= 0.001503759398
 c39: y_a10_proc_0 - tau = 0
 c40: y_a10_proc_0 <= 1
 c41: tau <= 0.000877192982
 c42: y_a11_proc_0 + y_a11_proc_1 - tau = 0
 c43: y_a11_proc_0 <= 0
 c44: y_a11_proc_1 <= 1
 c45: tau <= 0.000996015936
 c46: y_a12_proc_0 - tau = 0
 c47: y_a12_proc_0 <= 1
 c48: tau <= 0.001114827202
 c49: y_a13_proc_1 - tau = 0
 c50: y_a13_proc_1 <= 1
 c51: tau <= 0.000906618314
 c52: y_a14_proc_0 - tau = 0
 c53: y_a14_proc_0 <= 1
 c54: u_a0 - u_a1 - 528 y_a1_proc_0 - 794 y_a1_proc_1 >= -1
 c55: u_a1 - u_a2 - 771 y_a2_proc_0 >= 0
 c56: u_a2 - u_a3 - 1202 y_a3_proc_0 - 1170 y_a3_proc_1 >= 0
 c57: u_a3 - u_a4 - 1259 y_a4_proc_0 - 799 y_a4_proc_1 >= 0
 c58: u_a4 - u_a5 - 1206 y_a5_proc_1 >= 0
 c59: u_a5 - u_a6 - 461 y_a6_proc_1 >= 0
 c60: u_a4 - u_a7 - 898 y_a7_proc_0 - 1080 y_a7_proc_1 >= 0
 c61: u_a8 - u_a0 - 754 y_a0_proc_0 - 1048 y_a0_proc_1 >= 0
 c62: u_a9 - u_a4 - 1259 y_a4_proc_0 - 799 y_a4_proc_1 >= 0
 c63: u_a10 - u_a3 - 1202 y_a3_proc_0 - 1170 y_a3_proc_1 >= 0
 c64: u_a11 - u_a9 - 951 y_a9_proc_0 - 648 y_a9_proc_1 >= -1
 c65: u_a12 - u_a9 - 951 y_a9_proc_0 - 648 y_a9_proc_1 >= -1
 c66: u_a13 - u_a0 - 754 y_a0_proc_0 - 1048 y_a0_proc_1 >= 0
 c67: u_a7 - u_a14 - 1103 y_a14_proc_0 >= 0
 c68: u_a5 - u_a13 - 897 y_a13_proc_1 >= 0
 c69: u_a9 - u_a12 - 1004 y_a12_proc_0 >= 0
 c70: u_a8 - u_a11 - 1143 y_a11_proc_0 - 1140 y_a11_proc_1 >= 0
 c71: u_a6 - u_a8 - 1001 y_a8_proc_0 - 820 y_a8_proc_1 >= 0
 c72: u_a4 - u_a14 - 1103 y_a14_proc_0 >= 0
 c73: u_a11 - u_a13 - 897 y_a13_proc_1 >= 0
 c74: u_a12 - u_a10 - 665 y_a10_proc_0 >= 0
 c75: u_a14 - u_a11 - 1143 y_a11_proc_0 - 1140 y_a11_proc_1 >= -1
 c76: u_a6 - u_a10 - 665 y_a10_proc_0 >= -1
 c77: u_a14 - u_a2 - 771 y_a2_proc_0 >= -1
 c78: u_a5 - u_a0 - 754 y_a0_proc_0 - 1048 y_a0_proc_1 >= 0
 c79: u_a8 - u_a12 - 1004 y_a12_proc_0 >= -1
 c80: u_a11 - u_a14 - 1103 y_a14_proc_0 >= 0
 c81: u_a1 - u_a0 - 754 y_a0_proc_0 >= -1276
 c82: u_a1 - u_a0 - 1048 y_a0_proc_1 >= -1276
 c83: u_a0 - u_a1 - 528 y_a1_proc_0 >= -1243
 c84: u_a0 - u_a1 - 794 y_a1_proc_1 >= -1243
 c85: u_a2 - u_a0 - 754 y_a0_proc_0 >= -1276
 c86: u_a0 - u_a2 - 771 y_a2_proc_0 >= -1243
 c87: u_a3 - u_a0 - 754 y_a0_proc_0 >= -2518
 c88: u_a3 - u_a0 - 1048 y_a0_proc_1 >= 0
 c89: u_a0 - u_a3 - 1202 y_a3_proc_0 >= -2519
 c90: u_a0 - u_a3 - 1170 y_a3_proc_1 >= -1
 c91: u_a4 - u_a0 - 754 y_a0_proc_0 >= -2518
 c92: u_a4 - u_a0 - 1048 y_a0_proc_1 >= 0
 c93: u_a0 - u_a4 - 1259 y_a4_proc_0 >= -2519
 c94: u_a0 - u_a4 - 799 y_a4_proc_1 >= -1
 c95: u_a5 - u_a0 - 1048 y_a0_proc_1 >= 0
 c96: u_a0 - u_a5 - 1206 y_a5_proc_1 >= -1
 c97: u_a6 - u_a0 - 1048 y_a0_proc_1 >= 0
 c98: u_a0 - u_a6 - 461 y_a6_proc_1 >= -1
 c99: u_a7 - u_a0 - 754 y_a0_proc_0 >= -1243
 c100: u_a7 - u_a0 - 1048 y_a0_proc_1 >= -1243
 c101: u_a0 - u_a7 - 898 y_a7_proc_0 >= -1276
 c102: u_a0 - u_a7 - 1080 y_a7_proc_1 >= -1276
 c103: u_a8 - u_a0 - 754 y_a0_proc_0 >= -2518
 c104: u_a8 - u_a0 - 1048 y_a0_proc_1 >= 0
 c105: u_a0 - u_a8 - 1001 y_a8_proc_0 >= -2519
 c106: u_a0 - u_a8 - 820 y_a8_proc_1 >= -1
 c107: u_a9 - u_a0 - 754 y_a0_proc_0 >= -2517
 c108: u_a9 - u_a0 - 1048 y_a0_proc_1 >= 1
 c109: u_a0 - u_a9 - 951 y_a9_proc_0 >= -2520
 c110: u_a0 - u_a9 - 648 y_a9_proc_1 >= -2
 c111: u_a10 - u_a0 - 754 y_a0_proc_0 >= -1276
 c112: u_a0 - u_a10 - 665 y_a10_proc_0 >= -1243
 c113: u_a11 - u_a0 - 754 y_a0_proc_0 >= -2518
 c114: u_a11 - u_a0 - 1048 y_a0_proc_1 >= 0
 c115: u_a0 - u_a11 - 1143 y_a11_proc_0 >= -2519
 c116: u_a0 - u_a11 - 1140 y_a11_proc_1 >= -1
 c117: u_a12 - u_a0 - 754 y_a0_proc_0 >= -1243
 c118: u_a0 - u_a12 - 1004 y_a12_proc_0 >= -1276
 c119: u_a13 - u_a0 - 1048 y_a0_proc_1 >= 0
 c120: u_a0 - u_a13 - 897 y_a13_proc_1 >= -1
 c121: u_a14 - u_a0 - 754 y_a0_proc_0 >= -1243
 c122: u_a0 - u_a14 - 1103 y_a14_proc_0 >= -1276
 c123: u_a2 - u_a1 - 528 y_a1_proc_0 >= -1
 c124: u_a1 - u_a2 - 771 y_a2_proc_0 >= 0
 c125: u_a3 - u_a1 - 528 y_a1_proc_0 >= -1276
 c126: u_a3 - u_a1 - 794 y_a1_proc_1 >= -1276
 c127: u_a1 - u_a3 - 1202 y_a3_proc_0 >= -1243
 c128: u_a1 - u_a3 - 1170 y_a3_proc_1 >= -1243
 c129: u_a4 - u_a1 - 528 y_a1_proc_0 >= -1276
 c130: u_a4 - u_a1 - 794 y_a1_proc_1 >= -1276
 c131: u_a1 - u_a4 - 1259 y_a4_proc_0 >= -1243
 c132: u_a1 - u_a4 - 799 y_a4_proc_1 >= -1243
 c133: u_a5 - u_a1 - 794 y_a1_proc_1 >= -1276
 c134: u_a1 - u_a5 - 1206 y_a5_proc_1 >= -1243
 c135: u_a6 - u_a1 - 794 y_a1_proc_1 >= -1276
 c136: u_a1 - u_a6 - 461 y_a6_proc_1 >= -1243
 c137: u_a7 - u_a1 - 528 y_a1_proc_0 >= -1
 c138: u_a7 - u_a1 - 794 y_a1_proc_1 >= -2519
 c139: u_a1 - u_a7 - 898 y_a7_proc_0 >= 0
 c140: u_a1 - u_a7 - 1080 y_a7_proc_1 >= -2518
 c141: u_a8 - u_a1 - 528 y_a1_proc_0 >= -1276
 c142: u_a8 - u_a1 - 794 y_a1_proc_1 >= -1276
 c143: u_a1 - u_a8 - 1001 y_a8_proc_0 >= -1243
 c144: u_a1 - u_a8 - 820 y_a8_proc_1 >= -1243
 c145: u_a9 - u_a1 - 528 y_a1_proc_0 >= -1276
 c146: u_a9 - u_a1 - 794 y_a1_proc_1 >= -1276
 c147: u_a1 - u_a9 - 951 y_a9_proc_0 >= -1243
 c148: u_a1 - u_a9 - 648 y_a9_proc_1 >= -1243
 c149: u_a10 - u_a1 - 528 y_a1_proc_0 >= 0
 c150: u_a1 - u_a10 - 665 y_a10_proc_0 >= -1
 c151: u_a11 - u_a1 - 528 y_a1_proc_0 >= -1276
 c152: u_a11 - u_a1 - 794 y_a1_proc_1 >= -1276
 c153: u_a1 - u_a11 - 1143 y_a11_proc_0 >= -1243
 c154: u_a1 - u_a11 - 1140 y_a11_proc_1 >= -1243
 c155: u_a12 - u_a1 - 528 y_a1_proc_0 >= 0
 c156: u_a1 - u_a12 - 1004 y_a12_proc_0 >= -1
 c157: u_a13 - u_a1 - 794 y_a1_proc_1 >= -1276
 c158: u_a1 - u_a13 - 897 y_a13_proc_1 >= -1243
 c159: u_a14 - u_a1 - 528 y_a1_proc_0 >= -1
 c160: u_a1 - u_a14 - 1103 y_a14_proc_0 >= 0
 c161: u_a3 - u_a2 - 771 y_a2_proc_0 >= -1276
 c162: u_a2 - u_a3 - 1202 y_a3_proc_0 >= -1243
 c163: u_a4 - u_a2 - 771 y_a2_proc_0 >= -1276
 c164: u_a2 - u_a4 - 1259 y_a4_proc_0 >= -1243
 c165: u_a7 - u_a2 - 771 y_a2_proc_0 >= -1
 c166: u_a2 - u_a7 - 898 y_a7_proc_0 >= 0
 c167: u_a8 - u_a2 - 771 y_a2_proc_0 >= -1243
 c168: u_a2 - u_a8 - 1001 y_a8_proc_0 >= -1276
 c169: u_a9 - u_a2 - 771 y_a2_proc_0 >= -1276
 c170: u_a2 - u_a9 - 951 y_a9_proc_0 >= -1243
 c171: u_a10 - u_a2 - 771 y_a2_proc_0 >= 0
 c172: u_a2 - u_a10 - 665 y_a10_proc_0 >= -1
 c173: u_a11 - u_a2 - 771 y_a2_proc_0 >= -1276
 c174: u_a2 - u_a11 - 1143 y_a11_proc_0 >= -1243
 c175: u_a12 - u_a2 - 771 y_a2_proc_0 >= 0
 c176: u_a2 - u_a12 - 1004 y_a12_proc_0 >= -1
 c177: u_a14 - u_a2 - 771 y_a2_proc_0 >= -1
 c178: u_a2 - u_a14 - 1103 y_a14_proc_0 >= 0
 c179: u_a4 - u_a3 - 1202 y_a3_proc_0 >= -2519
 c180: u_a4 - u_a3 - 1170 y_a3_proc_1 >= -1
 c181: u_a3 - u_a4 - 1259 y_a4_proc_0 >= -2518
 c182: u_a3 - u_a4 - 799 y_a4_proc_1 >= 0
 c183: u_a5 - u_a3 - 1170 y_a3_proc_1 >= -1
 c184: u_a3 - u_a5 - 1206 y_a5_proc_1 >= 0
 c185: u_a6 - u_a3 - 1170 y_a3_proc_1 >= -1
 c186: u_a3 - u_a6 - 461 y_a6_proc_1 >= 0
 c187: u_a7 - u_a3 - 1202 y_a3_proc_0 >= -1276
 c188: u_a7 - u_a3 - 1170 y_a3_proc_1 >= -1276
 c189: u_a3 - u_a7 - 898 y_a7_proc_0 >= -1243
 c190: u_a3 - u_a7 - 1080 y_a7_proc_1 >= -1243
 c191: u_a8 - u_a3 - 1202 y_a3_proc_0 >= -2519
 c192: u_a8 - u_a3 - 1170 y_a3_proc_1 >= -1
 c193: u_a3 - u_a8 - 1001 y_a8_proc_0 >= -2518
 c194: u_a3 - u_a8 - 820 y_a8_proc_1 >= 0
 c195: u_a9 - u_a3 - 1202 y_a3_proc_0 >= -2518
 c196: u_a9 - u_a3 - 1170 y_a3_proc_1 >= 0
 c197: u_a3 - u_a9 - 951 y_a9_proc_0 >= -2519
 c198: u_a3 - u_a9 - 648 y_a9_proc_1 >= -1
 c199: u_a10 - u_a3 - 1202 y_a3_proc_0 >= -1276
 c200: u_a3 - u_a10 - 665 y_a10_proc_0 >= -1243
 c201: u_a11 - u_a3 - 1202 y_a3_proc_0 >= -2519
 c202: u_a11 - u_a3 - 1170 y_a3_proc_1 >= -1
 c203: u_a3 - u_a11 - 1143 y_a11_proc_0 >= -2518
 c204: u_a3 - u_a11 - 1140 y_a11_proc_1 >= 0
 c205: u_a12 - u_a3 - 1202 y_a3_proc_0 >= -1276
 c206: u_a3 - u_a12 - 1004 y_a12_proc_0 >= -1243
 c207: u_a13 - u_a3 - 1170 y_a3_proc_1 >= -1
 c208: u_a3 - u_a13 - 897 y_a13_proc_1 >= 0
 c209: u_a14 - u_a3 - 1202 y_a3_proc_0 >= -1276
 c210: u_a3 - u_a14 - 1103 y_a14_proc_0 >= -1243
 c211: u_a5 - u_a4 - 799 y_a4_proc_1 >= -1
 c212: u_a4 - u_a5 - 1206 y_a5_proc_1 >= 0
 c213: u_a6 - u_a4 - 799 y_a4_proc_1 >= -1
 c214: u_a4 - u_a6 - 461 y_a6_proc_1 >= 0
 c215: u_a7 - u_a4 - 1259 y_a4_proc_0 >= -1276
 c216: u_a7 - u_a4 - 799 y_a4_proc_1 >= -1276
 c217: u_a4 - u_a7 - 898 y_a7_proc_0 >= -1243
 c218: u_a4 - u_a7 - 1080 y_a7_proc_1 >= -1243
 c219: u_a8 - u_a4 - 1259 y_a4_proc_0 >= -2519
 c220: u_a8 - u_a4 - 799 y_a4_proc_1 >= -1
 c221: u_a4 - u_a8 - 1001 y_a8_proc_0 >= -2518
 c222: u_a4 - u_a8 - 820 y_a8_proc_1 >= 0
 c223: u_a9 - u_a4 - 1259 y_a4_proc_0 >= -2518
 c224: u_a9 - u_a4 - 799 y_a4_proc_1 >= 0
 c225: u_a4 - u_a9 - 951 y_a9_proc_0 >= -2519
 c226: u_a4 - u_a9 - 648 y_a9_proc_1 >= -1
 c227: u_a10 - u_a4 - 1259 y_a4_proc_0 >= -1276
 c228: u_a4 - u_a10 - 665 y_a10_proc_0 >= -1243
 c229: u_a11 - u_a4 - 1259 y_a4_proc_0 >= -2519
 c230: u_a11 - u_a4 - 799 y_a4_proc_1 >= -1
 c231: u_a4 - u_a11 - 1143 y_a11_proc_0 >= -2518
 c232: u_a4 - u_a11 - 1140 y_a11_proc_1 >= 0
 c233: u_a12 - u_a4 - 1259 y_a4_proc_0 >= -1276
 c234: u_a4 - u_a12 - 1004 y_a12_proc_0 >= -1243
 c235: u_a13 - u_a4 - 799 y_a4_proc_1 >= -1
 c236: u_a4 - u_a13 - 897 y_a13_proc_1 >= 0
 c237: u_a14 - u_a4 - 1259 y_a4_proc_0 >= -1276
 c238: u_a4 - u_a14 - 1103 y_a14_proc_0 >= -1243
 c239: u_a6 - u_a5 - 1206 y_a5_proc_1 >= -1
 c240: u_a5 - u_a6 - 461 y_a6_proc_1 >= 0
 c241: u_a7 - u_a5 - 1206 y_a5_proc_1 >= -1243
 c242: u_a5 - u_a7 - 1080 y_a7_proc_1 >= -1276
 c243: u_a8 - u_a5 - 1206 y_a5_proc_1 >= -1
 c244: u_a5 - u_a8 - 820 y_a8_proc_1 >= 0
 c245: u_a9 - u_a5 - 1206 y_a5_proc_1 >= 0
 c246: u_a5 - u_a9 - 648 y_a9_proc_1 >= -1
 c247: u_a11 - u_a5 - 1206 y_a5_proc_1 >= -1
 c248: u_a5 - u_a11 - 1140 y_a11_proc_1 >= 0
 c249: u_a13 - u_a5 - 1206 y_a5_proc_1 >= -1
 c250: u_a5 - u_a13 - 897 y_a13_proc_1 >= 0
 c251: u_a7 - u_a6 - 461 y_a6_proc_1 >= -1276
 c252: u_a6 - u_a7 - 1080 y_a7_proc_1 >= -1243
 c253: u_a8 - u_a6 - 461 y_a6_proc_1 >= -1
 c254: u_a6 - u_a8 - 820 y_a8_proc_1 >= 0
 c255: u_a9 - u_a6 - 461 y_a6_proc_1 >= 0
 c256: u_a6 - u_a9 - 648 y_a9_proc_1 >= -1
 c257: u_a11 - u_a6 - 461 y_a6_proc_1 >= -1
 c258: u_a6 - u_a11 - 1140 y_a11_proc_1 >= 0
 c259: u_a13 - u_a6 - 461 y_a6_proc_1 >= -1
 c260: u_a6 - u_a13 - 897 y_a13_proc_1 >= 0
 c261: u_a8 - u_a7 - 898 y_a7_proc_0 >= -1243
 c262: u_a8 - u_a7 - 1080 y_a7_proc_1 >= -1243
 c263: u_a7 - u_a8 - 1001 y_a8_proc_0 >= -1276
 c264: u_a7 - u_a8 - 820 y_a8_proc_1 >= -1276
 c265: u_a9 - u_a7 - 898 y_a7_proc_0 >= -1276
 c266: u_a9 - u_a7 - 1080 y_a7_proc_1 >= -1276
 c267: u_a7 - u_a9 - 951 y_a9_proc_0 >= -1243
 c268: u_a7 - u_a9 - 648 y_a9_proc_1 >= -1243
 c269: u_a10 - u_a7 - 898 y_a7_proc_0 >= 0
 c270: u_a7 - u_a10 - 665 y_a10_proc_0 >= -1
 c271: u_a11 - u_a7 - 898 y_a7_proc_0 >= -1276
 c272: u_a11 - u_a7 - 1080 y_a7_proc_1 >= -1276
 c273: u_a7 - u_a11 - 1143 y_a11_proc_0 >= -1243
 c274: u_a7 - u_a11 - 1140 y_a11_proc_1 >= -1243
 c275: u_a12 - u_a7 - 898 y_a7_proc_0 >= 0
 c276: u_a7 - u_a12 - 1004 y_a12_proc_0 >= -1
 c277: u_a13 - u_a7 - 1080 y_a7_proc_1 >= -1276
 c278: u_a7 - u_a13 - 897 y_a13_proc_1 >= -1243
 c279: u_a14 - u_a7 - 898 y_a7_proc_0 >= -1
 c280: u_a7 - u_a14 - 1103 y_a14_proc_0 >= 0
 c281: u_a9 - u_a8 - 1001 y_a8_proc_0 >= -2518
 c282: u_a9 - u_a8 - 820 y_a8_proc_1 >= 0
 c283: u_a8 - u_a9 - 951 y_a9_proc_0 >= -2519
 c284: u_a8 - u_a9 - 648 y_a9_proc_1 >= -1
 c285: u_a10 - u_a8 - 1001 y_a8_proc_0 >= -1276
 c286: u_a8 - u_a10 - 665 y_a10_proc_0 >= -1243
 c287: u_a11 - u_a8 - 1001 y_a8_proc_0 >= -2519
 c288: u_a11 - u_a8 - 820 y_a8_proc_1 >= -1
 c289: u_a8 - u_a11 - 1143 y_a11_proc_0 >= -2518
 c290: u_a8 - u_a11 - 1140 y_a11_proc_1 >= 0
 c291: u_a12 - u_a8 - 1001 y_a8_proc_0 >= -1276
 c292: u_a8 - u_a12 - 1004 y_a12_proc_0 >= -1243
 c293: u_a13 - u_a8 - 820 y_a8_proc_1 >= -1
 c294: u_a8 - u_a13 - 897 y_a13_proc_1 >= 0
 c295: u_a14 - u_a8 - 1001 y_a8_proc_0 >= -1276
 c296: u_a8 - u_a14 - 1103 y_a14_proc_0 >= -1243
 c297: u_a10 - u_a9 - 951 y_a9_proc_0 >= -1276
 c298: u_a9 - u_a10 - 665 y_a10_proc_0 >= -1243
 c299: u_a11 - u_a9 - 951 y_a9_proc_0 >= -2519
 c300: u_a11 - u_a9 - 648 y_a9_proc_1 >= -1
 c301: u_a9 - u_a11 - 1143 y_a11_proc_0 >= -2518
 c302: u_a9 - u_a11 - 1140 y_a11_proc_1 >= 0
 c303: u_a12 - u_a9 - 951 y_a9_proc_0 >= -1276
 c304: u_a9 - u_a12 - 1004 y_a12_proc_0 >= -1243
 c305: u_a13 - u_a9 - 648 y_a9_proc_1 >= -2
 c306: u_a9 - u_a13 - 897 y_a13_proc_1 >= 1
 c307: u_a14 - u_a9 - 951 y_a9_proc_0 >= -1276
 c308: u_a9 - u_a14 - 1103 y_a14_proc_0 >= -1243
 c309: u_a11 - u_a10 - 665 y_a10_proc_0 >= -1276
 c310: u_a10 - u_a11 - 1143 y_a11_proc_0 >= -1243
 c311: u_a12 - u_a10 - 665 y_a10_proc_0 >= 0
 c312: u_a10 - u_a12 - 1004 y_a12_proc_0 >= -1
 c313: u_a14 - u_a10 - 665 y_a10_proc_0 >= -1
 c314: u_a10 - u_a14 - 1103 y_a14_proc_0 >= 0
 c315: u_a12 - u_a11 - 1143 y_a11_proc_0 >= -1276
 c316: u_a11 - u_a12 - 1004 y_a12_proc_0 >= -1243
 c317: u_a13 - u_a11 - 1140 y_a11_proc_1 >= -1
 c318: u_a11 - u_a13 - 897 y_a13_proc_1 >= 0
 c319: u_a14 - u_a11 - 1143 y_a11_proc_0 >= -1276
 c320: u_a11 - u_a14 - 1103 y_a14_proc_0 >= -1243
 c321: u_a14 - u_a12 - 1004 y_a12_proc_0 >= -1
 c322: u_a12 - u_a14 - 1103 y_a14_proc_0 >= 0

Bounds
End
